************************************************************************
file with basedata            : mf31_.bas
initial value random generator: 2144705937
************************************************************************
projects                      :  1
jobs (incl. supersource/sink ):  32
horizon                       :  230
RESOURCES
  - renewable                 :  2   R
  - nonrenewable              :  2   N
  - doubly constrained        :  0   D
************************************************************************
PROJECT INFORMATION:
pronr.  #jobs rel.date duedate tardcost  MPM-Time
    1     30      0       26       16       26
************************************************************************
PRECEDENCE RELATIONS:
jobnr.    #modes  #successors   successors
   1        1          3           2   3   4
   2        3          3           7   8  16
   3        3          3           5   6  14
   4        3          1          25
   5        3          2           7  13
   6        3          1          12
   7        3          2           9  11
   8        3          3          10  18  19
   9        3          2          17  26
  10        3          3          17  24  26
  11        3          2          20  21
  12        3          3          18  21  31
  13        3          2          15  20
  14        3          3          16  21  28
  15        3          3          17  28  30
  16        3          1          22
  17        3          2          29  31
  18        3          1          20
  19        3          2          22  23
  20        3          2          22  24
  21        3          1          27
  22        3          2          25  26
  23        3          1          28
  24        3          1          25
  25        3          1          27
  26        3          2          27  29
  27        3          1          30
  28        3          2          29  31
  29        3          1          32
  30        3          1          32
  31        3          1          32
  32        1          0        
************************************************************************
REQUESTS/DURATIONS:
jobnr. mode duration  R 1  R 2  N 1  N 2
------------------------------------------------------------------------
  1      1     0       0    0    0    0
  2      1     2       7    9    0    8
         2     6       6    7    2    0
         3     7       5    6    0    2
  3      1     3       3    8    9    0
         2     8       3    7    0    6
         3    10       3    4    0    6
  4      1     5       7    8    0    8
         2     7       5    8    2    0
         3     7       6    7    0    7
  5      1     1       6    7    0    8
         2     6       4    7    0    4
         3     7       3    6    3    0
  6      1     3       8    5    0    9
         2     7       8    4    0    7
         3     8       7    2    5    0
  7      1     5       8    2    2    0
         2     8       8    2    0    4
         3     9       7    2    0    2
  8      1     4       7    6    0    8
         2     7       6    5    0    7
         3     9       6    4    0    7
  9      1     1       6   10    5    0
         2     6       5    9    4    0
         3     6       6    7    0    7
 10      1     2       9    4    0    8
         2     3       7    4    9    0
         3     7       7    4    6    0
 11      1     4      10    7    6    0
         2     7       8    5    5    0
         3    10       8    2    0   10
 12      1     2       7    6    5    0
         2     7       6    3    0    3
         3     8       3    3    0    2
 13      1     6       2    7    0    8
         2     6       2    5    0    9
         3     7       2    2    5    0
 14      1     2       7    9    0    2
         2     3       7    9    8    0
         3     9       3    8    7    0
 15      1     1       3    6    0    5
         2     8       2    6    0    1
         3     9       1    4   10    0
 16      1     1       6    8    7    0
         2     1       6    7    0   10
         3     4       4    6    0    9
 17      1     4       6    1   10    0
         2     5       5    1   10    0
         3     8       4    1    9    0
 18      1     2       5    7    0    7
         2     2       5    8    6    0
         3     6       4    3    0    7
 19      1     2       7    8    0    5
         2     3       6    8    4    0
         3     6       2    7    0    3
 20      1     2      10    2    0    8
         2     4       5    1    2    0
         3     7       4    1    0    8
 21      1     3       7    3    0    8
         2     9       7    3    3    0
         3    10       6    2    0    4
 22      1     1       3    3    0    9
         2     9       2    3    7    0
         3     9       2    2    0    5
 23      1     5       2    8    0    4
         2     6       2    7    6    0
         3     8       1    7    4    0
 24      1     2       8    3    6    0
         2     5       8    3    4    0
         3     6       8    2    0    6
 25      1     3       3    5    0    3
         2     3       4    5    4    0
         3     4       2    4    4    0
 26      1     4       3   10    5    0
         2     5       3    9    4    0
         3     8       2    7    4    0
 27      1     3       5    4    7    0
         2     4       5    3    5    0
         3     8       4    2    5    0
 28      1     1       5   10    4    0
         2     6       5    8    2    0
         3     9       5    7    0    1
 29      1     2       7    9    0    5
         2     2       6    9   10    0
         3    10       5    7    9    0
 30      1     3       7    9    8    0
         2     8       5    7    0    5
         3     9       4    6    7    0
 31      1     1       9    5    7    0
         2     5       8    4    0    9
         3     5       9    4    4    0
 32      1     0       0    0    0    0
************************************************************************
RESOURCEAVAILABILITIES:
  R 1  R 2  N 1  N 2
   31   32  167  175
************************************************************************
